\* Output\FCI_monthly_model_allocation_rr *\
Minimize
OBJ: 397.8 x_rice_('BVL',_'CHE') + 251.9 x_rice_('BVL',_'FCIG')
 + 147.4 x_rice_('BVL',_'FCIR') + 147.4 x_rice_('BVL',_'FCST')
 + 147.4 x_rice_('BVL',_'KNGK') + 184.3 x_rice_('BVL',_'PKO')
 + 368.6 x_rice_('BVL',_'VBL') + 309.3 x_rice_('BVL',_'VZM')
 + 397.8 x_rice_('CHE',_'BVL') + 224.8 x_rice_('CHE',_'FCIG')
 + 425.5 x_rice_('CHE',_'FCIR') + 368.6 x_rice_('CHE',_'FCST')
 + 397.8 x_rice_('CHE',_'KNGK') + 541 x_rice_('CHE',_'PKO')
 + 184.3 x_rice_('CHE',_'VBL') + 147.4 x_rice_('CHE',_'VZM')
 + 251.9 x_rice_('FCIG',_'BVL') + 224.8 x_rice_('FCIG',_'CHE')
 + 309.3 x_rice_('FCIG',_'FCIR') + 251.9 x_rice_('FCIG',_'FCST')
 + 251.9 x_rice_('FCIG',_'KNGK') + 397.8 x_rice_('FCIG',_'PKO')
 + 184.3 x_rice_('FCIG',_'VBL') + 147.4 x_rice_('FCIG',_'VZM')
 + 147.4 x_rice_('FCIR',_'BVL') + 425.5 x_rice_('FCIR',_'CHE')
 + 309.3 x_rice_('FCIR',_'FCIG') + 147.4 x_rice_('FCIR',_'FCST')
 + 147.4 x_rice_('FCIR',_'KNGK') + 147.4 x_rice_('FCIR',_'PKO')
 + 425.5 x_rice_('FCIR',_'VBL') + 368.6 x_rice_('FCIR',_'VZM')
 + 147.4 x_rice_('FCST',_'BVL') + 368.6 x_rice_('FCST',_'CHE')
 + 251.9 x_rice_('FCST',_'FCIG') + 147.4 x_rice_('FCST',_'FCIR')
 + 147.4 x_rice_('FCST',_'KNGK') + 224.8 x_rice_('FCST',_'PKO')
 + 368.6 x_rice_('FCST',_'VBL') + 281.7 x_rice_('FCST',_'VZM')
 + 147.4 x_rice_('KNGK',_'BVL') + 397.8 x_rice_('KNGK',_'CHE')
 + 251.9 x_rice_('KNGK',_'FCIG') + 147.4 x_rice_('KNGK',_'FCIR')
 + 147.4 x_rice_('KNGK',_'FCST') + 251.9 x_rice_('KNGK',_'PKO')
 + 368.6 x_rice_('KNGK',_'VBL') + 309.3 x_rice_('KNGK',_'VZM')
 + 184.3 x_rice_('PKO',_'BVL') + 541 x_rice_('PKO',_'CHE')
 + 397.8 x_rice_('PKO',_'FCIG') + 147.4 x_rice_('PKO',_'FCIR')
 + 224.8 x_rice_('PKO',_'FCST') + 251.9 x_rice_('PKO',_'KNGK')
 + 512.2 x_rice_('PKO',_'VBL') + 454.2 x_rice_('PKO',_'VZM')
 + 368.6 x_rice_('VBL',_'BVL') + 184.3 x_rice_('VBL',_'CHE')
 + 184.3 x_rice_('VBL',_'FCIG') + 425.5 x_rice_('VBL',_'FCIR')
 + 368.6 x_rice_('VBL',_'FCST') + 368.6 x_rice_('VBL',_'KNGK')
 + 512.2 x_rice_('VBL',_'PKO') + 147.4 x_rice_('VBL',_'VZM')
 + 309.3 x_rice_('VZM',_'BVL') + 147.4 x_rice_('VZM',_'CHE')
 + 147.4 x_rice_('VZM',_'FCIG') + 368.6 x_rice_('VZM',_'FCIR')
 + 281.7 x_rice_('VZM',_'FCST') + 309.3 x_rice_('VZM',_'KNGK')
 + 454.2 x_rice_('VZM',_'PKO') + 147.4 x_rice_('VZM',_'VBL')
 + 397.8 x_wheat_('BVL',_'CHE') + 251.9 x_wheat_('BVL',_'FCIG')
 + 147.4 x_wheat_('BVL',_'FCIR') + 147.4 x_wheat_('BVL',_'FCST')
 + 147.4 x_wheat_('BVL',_'KNGK') + 184.3 x_wheat_('BVL',_'PKO')
 + 368.6 x_wheat_('BVL',_'VBL') + 309.3 x_wheat_('BVL',_'VZM')
 + 397.8 x_wheat_('CHE',_'BVL') + 224.8 x_wheat_('CHE',_'FCIG')
 + 425.5 x_wheat_('CHE',_'FCIR') + 368.6 x_wheat_('CHE',_'FCST')
 + 397.8 x_wheat_('CHE',_'KNGK') + 541 x_wheat_('CHE',_'PKO')
 + 184.3 x_wheat_('CHE',_'VBL') + 147.4 x_wheat_('CHE',_'VZM')
 + 251.9 x_wheat_('FCIG',_'BVL') + 224.8 x_wheat_('FCIG',_'CHE')
 + 309.3 x_wheat_('FCIG',_'FCIR') + 251.9 x_wheat_('FCIG',_'FCST')
 + 251.9 x_wheat_('FCIG',_'KNGK') + 397.8 x_wheat_('FCIG',_'PKO')
 + 184.3 x_wheat_('FCIG',_'VBL') + 147.4 x_wheat_('FCIG',_'VZM')
 + 147.4 x_wheat_('FCIR',_'BVL') + 425.5 x_wheat_('FCIR',_'CHE')
 + 309.3 x_wheat_('FCIR',_'FCIG') + 147.4 x_wheat_('FCIR',_'FCST')
 + 147.4 x_wheat_('FCIR',_'KNGK') + 147.4 x_wheat_('FCIR',_'PKO')
 + 425.5 x_wheat_('FCIR',_'VBL') + 368.6 x_wheat_('FCIR',_'VZM')
 + 147.4 x_wheat_('FCST',_'BVL') + 368.6 x_wheat_('FCST',_'CHE')
 + 251.9 x_wheat_('FCST',_'FCIG') + 147.4 x_wheat_('FCST',_'FCIR')
 + 147.4 x_wheat_('FCST',_'KNGK') + 224.8 x_wheat_('FCST',_'PKO')
 + 368.6 x_wheat_('FCST',_'VBL') + 281.7 x_wheat_('FCST',_'VZM')
 + 147.4 x_wheat_('KNGK',_'BVL') + 397.8 x_wheat_('KNGK',_'CHE')
 + 251.9 x_wheat_('KNGK',_'FCIG') + 147.4 x_wheat_('KNGK',_'FCIR')
 + 147.4 x_wheat_('KNGK',_'FCST') + 251.9 x_wheat_('KNGK',_'PKO')
 + 368.6 x_wheat_('KNGK',_'VBL') + 309.3 x_wheat_('KNGK',_'VZM')
 + 184.3 x_wheat_('PKO',_'BVL') + 541 x_wheat_('PKO',_'CHE')
 + 397.8 x_wheat_('PKO',_'FCIG') + 147.4 x_wheat_('PKO',_'FCIR')
 + 224.8 x_wheat_('PKO',_'FCST') + 251.9 x_wheat_('PKO',_'KNGK')
 + 512.2 x_wheat_('PKO',_'VBL') + 454.2 x_wheat_('PKO',_'VZM')
 + 368.6 x_wheat_('VBL',_'BVL') + 184.3 x_wheat_('VBL',_'CHE')
 + 184.3 x_wheat_('VBL',_'FCIG') + 425.5 x_wheat_('VBL',_'FCIR')
 + 368.6 x_wheat_('VBL',_'FCST') + 368.6 x_wheat_('VBL',_'KNGK')
 + 512.2 x_wheat_('VBL',_'PKO') + 147.4 x_wheat_('VBL',_'VZM')
 + 309.3 x_wheat_('VZM',_'BVL') + 147.4 x_wheat_('VZM',_'CHE')
 + 147.4 x_wheat_('VZM',_'FCIG') + 368.6 x_wheat_('VZM',_'FCIR')
 + 281.7 x_wheat_('VZM',_'FCST') + 309.3 x_wheat_('VZM',_'KNGK')
 + 454.2 x_wheat_('VZM',_'PKO') + 147.4 x_wheat_('VZM',_'VBL')
Subject To
_C1: x_wheat_('CHE',_'CHE') = 0
_C10: x_rice_('CHE',_'CHE') = 0
_dummy: __dummy = 0
_C100: __dummy >= 0
_C101: __dummy <= 0
_C102: __dummy >= 0
_C103: __dummy <= 0
_C104: __dummy >= 0
_C105: __dummy <= 0
_C106: __dummy >= 0
_C107: __dummy <= 0
_C108: __dummy >= 0
_C109: __dummy <= 0
_C11: x_rice_('FCIG',_'FCIG') = 0
_C110: __dummy >= 0
_C111: __dummy <= 0
_C112: __dummy >= 0
_C113: __dummy <= 0
_C114: __dummy >= 0
_C115: __dummy <= 0
_C116: __dummy >= 0
_C117: __dummy <= 0
_C118: __dummy >= 0
_C119: __dummy <= 0
_C12: x_rice_('VBL',_'VBL') = 0
_C120: __dummy >= 0
_C121: __dummy <= 0
_C122: __dummy >= 0
_C123: __dummy <= 0
_C124: __dummy >= 0
_C125: __dummy <= 0
_C126: x_rice_('BVL',_'CHE') + x_rice_('CHE',_'CHE') + x_rice_('FCIG',_'CHE')
 + x_rice_('FCIR',_'CHE') + x_rice_('FCST',_'CHE') + x_rice_('KNGK',_'CHE')
 + x_rice_('PKO',_'CHE') + x_rice_('VBL',_'CHE') + x_rice_('VZM',_'CHE')
 + x_wheat_('BVL',_'CHE') + x_wheat_('CHE',_'CHE') + x_wheat_('FCIG',_'CHE')
 + x_wheat_('FCIR',_'CHE') + x_wheat_('FCST',_'CHE') + x_wheat_('KNGK',_'CHE')
 + x_wheat_('PKO',_'CHE') + x_wheat_('VBL',_'CHE') + x_wheat_('VZM',_'CHE')
 <= 0
_C127: x_rice_('BVL',_'FCIG') + x_rice_('CHE',_'FCIG')
 + x_rice_('FCIG',_'FCIG') + x_rice_('FCIR',_'FCIG') + x_rice_('FCST',_'FCIG')
 + x_rice_('KNGK',_'FCIG') + x_rice_('PKO',_'FCIG') + x_rice_('VBL',_'FCIG')
 + x_rice_('VZM',_'FCIG') + x_wheat_('BVL',_'FCIG') + x_wheat_('CHE',_'FCIG')
 + x_wheat_('FCIG',_'FCIG') + x_wheat_('FCIR',_'FCIG')
 + x_wheat_('FCST',_'FCIG') + x_wheat_('KNGK',_'FCIG')
 + x_wheat_('PKO',_'FCIG') + x_wheat_('VBL',_'FCIG') + x_wheat_('VZM',_'FCIG')
 <= 0
_C128: x_rice_('BVL',_'VBL') + x_rice_('CHE',_'VBL') + x_rice_('FCIG',_'VBL')
 + x_rice_('FCIR',_'VBL') + x_rice_('FCST',_'VBL') + x_rice_('KNGK',_'VBL')
 + x_rice_('PKO',_'VBL') + x_rice_('VBL',_'VBL') + x_rice_('VZM',_'VBL')
 + x_wheat_('BVL',_'VBL') + x_wheat_('CHE',_'VBL') + x_wheat_('FCIG',_'VBL')
 + x_wheat_('FCIR',_'VBL') + x_wheat_('FCST',_'VBL') + x_wheat_('KNGK',_'VBL')
 + x_wheat_('PKO',_'VBL') + x_wheat_('VBL',_'VBL') + x_wheat_('VZM',_'VBL')
 <= 0
_C129: x_rice_('BVL',_'VZM') + x_rice_('CHE',_'VZM') + x_rice_('FCIG',_'VZM')
 + x_rice_('FCIR',_'VZM') + x_rice_('FCST',_'VZM') + x_rice_('KNGK',_'VZM')
 + x_rice_('PKO',_'VZM') + x_rice_('VBL',_'VZM') + x_rice_('VZM',_'VZM')
 + x_wheat_('BVL',_'VZM') + x_wheat_('CHE',_'VZM') + x_wheat_('FCIG',_'VZM')
 + x_wheat_('FCIR',_'VZM') + x_wheat_('FCST',_'VZM') + x_wheat_('KNGK',_'VZM')
 + x_wheat_('PKO',_'VZM') + x_wheat_('VBL',_'VZM') + x_wheat_('VZM',_'VZM')
 <= 0
_C13: x_rice_('VZM',_'VZM') = 0
_C130: x_rice_('BVL',_'KNGK') + x_rice_('CHE',_'KNGK')
 + x_rice_('FCIG',_'KNGK') + x_rice_('FCIR',_'KNGK') + x_rice_('FCST',_'KNGK')
 + x_rice_('KNGK',_'KNGK') + x_rice_('PKO',_'KNGK') + x_rice_('VBL',_'KNGK')
 + x_rice_('VZM',_'KNGK') + x_wheat_('BVL',_'KNGK') + x_wheat_('CHE',_'KNGK')
 + x_wheat_('FCIG',_'KNGK') + x_wheat_('FCIR',_'KNGK')
 + x_wheat_('FCST',_'KNGK') + x_wheat_('KNGK',_'KNGK')
 + x_wheat_('PKO',_'KNGK') + x_wheat_('VBL',_'KNGK') + x_wheat_('VZM',_'KNGK')
 <= 0
_C131: x_rice_('BVL',_'FCST') + x_rice_('CHE',_'FCST')
 + x_rice_('FCIG',_'FCST') + x_rice_('FCIR',_'FCST') + x_rice_('FCST',_'FCST')
 + x_rice_('KNGK',_'FCST') + x_rice_('PKO',_'FCST') + x_rice_('VBL',_'FCST')
 + x_rice_('VZM',_'FCST') + x_wheat_('BVL',_'FCST') + x_wheat_('CHE',_'FCST')
 + x_wheat_('FCIG',_'FCST') + x_wheat_('FCIR',_'FCST')
 + x_wheat_('FCST',_'FCST') + x_wheat_('KNGK',_'FCST')
 + x_wheat_('PKO',_'FCST') + x_wheat_('VBL',_'FCST') + x_wheat_('VZM',_'FCST')
 <= 0
_C132: x_rice_('BVL',_'BVL') + x_rice_('CHE',_'BVL') + x_rice_('FCIG',_'BVL')
 + x_rice_('FCIR',_'BVL') + x_rice_('FCST',_'BVL') + x_rice_('KNGK',_'BVL')
 + x_rice_('PKO',_'BVL') + x_rice_('VBL',_'BVL') + x_rice_('VZM',_'BVL')
 + x_wheat_('BVL',_'BVL') + x_wheat_('CHE',_'BVL') + x_wheat_('FCIG',_'BVL')
 + x_wheat_('FCIR',_'BVL') + x_wheat_('FCST',_'BVL') + x_wheat_('KNGK',_'BVL')
 + x_wheat_('PKO',_'BVL') + x_wheat_('VBL',_'BVL') + x_wheat_('VZM',_'BVL')
 <= 0
_C133: x_rice_('BVL',_'FCIR') + x_rice_('CHE',_'FCIR')
 + x_rice_('FCIG',_'FCIR') + x_rice_('FCIR',_'FCIR') + x_rice_('FCST',_'FCIR')
 + x_rice_('KNGK',_'FCIR') + x_rice_('PKO',_'FCIR') + x_rice_('VBL',_'FCIR')
 + x_rice_('VZM',_'FCIR') + x_wheat_('BVL',_'FCIR') + x_wheat_('CHE',_'FCIR')
 + x_wheat_('FCIG',_'FCIR') + x_wheat_('FCIR',_'FCIR')
 + x_wheat_('FCST',_'FCIR') + x_wheat_('KNGK',_'FCIR')
 + x_wheat_('PKO',_'FCIR') + x_wheat_('VBL',_'FCIR') + x_wheat_('VZM',_'FCIR')
 <= 0
_C134: x_rice_('BVL',_'PKO') + x_rice_('CHE',_'PKO') + x_rice_('FCIG',_'PKO')
 + x_rice_('FCIR',_'PKO') + x_rice_('FCST',_'PKO') + x_rice_('KNGK',_'PKO')
 + x_rice_('PKO',_'PKO') + x_rice_('VBL',_'PKO') + x_rice_('VZM',_'PKO')
 + x_wheat_('BVL',_'PKO') + x_wheat_('CHE',_'PKO') + x_wheat_('FCIG',_'PKO')
 + x_wheat_('FCIR',_'PKO') + x_wheat_('FCST',_'PKO') + x_wheat_('KNGK',_'PKO')
 + x_wheat_('PKO',_'PKO') + x_wheat_('VBL',_'PKO') + x_wheat_('VZM',_'PKO')
 <= 0
_C135: x_rice_('BVL',_'CHE') + x_rice_('CHE',_'CHE') + x_rice_('FCIG',_'CHE')
 + x_rice_('FCIR',_'CHE') + x_rice_('FCST',_'CHE') + x_rice_('KNGK',_'CHE')
 + x_rice_('PKO',_'CHE') + x_rice_('VBL',_'CHE') + x_rice_('VZM',_'CHE')
 + x_wheat_('BVL',_'CHE') + x_wheat_('CHE',_'CHE') + x_wheat_('FCIG',_'CHE')
 + x_wheat_('FCIR',_'CHE') + x_wheat_('FCST',_'CHE') + x_wheat_('KNGK',_'CHE')
 + x_wheat_('PKO',_'CHE') + x_wheat_('VBL',_'CHE') + x_wheat_('VZM',_'CHE')
 <= 25
_C136: x_rice_('BVL',_'FCIG') + x_rice_('CHE',_'FCIG')
 + x_rice_('FCIG',_'FCIG') + x_rice_('FCIR',_'FCIG') + x_rice_('FCST',_'FCIG')
 + x_rice_('KNGK',_'FCIG') + x_rice_('PKO',_'FCIG') + x_rice_('VBL',_'FCIG')
 + x_rice_('VZM',_'FCIG') + x_wheat_('BVL',_'FCIG') + x_wheat_('CHE',_'FCIG')
 + x_wheat_('FCIG',_'FCIG') + x_wheat_('FCIR',_'FCIG')
 + x_wheat_('FCST',_'FCIG') + x_wheat_('KNGK',_'FCIG')
 + x_wheat_('PKO',_'FCIG') + x_wheat_('VBL',_'FCIG') + x_wheat_('VZM',_'FCIG')
 <= 25
_C137: x_rice_('BVL',_'VBL') + x_rice_('CHE',_'VBL') + x_rice_('FCIG',_'VBL')
 + x_rice_('FCIR',_'VBL') + x_rice_('FCST',_'VBL') + x_rice_('KNGK',_'VBL')
 + x_rice_('PKO',_'VBL') + x_rice_('VBL',_'VBL') + x_rice_('VZM',_'VBL')
 + x_wheat_('BVL',_'VBL') + x_wheat_('CHE',_'VBL') + x_wheat_('FCIG',_'VBL')
 + x_wheat_('FCIR',_'VBL') + x_wheat_('FCST',_'VBL') + x_wheat_('KNGK',_'VBL')
 + x_wheat_('PKO',_'VBL') + x_wheat_('VBL',_'VBL') + x_wheat_('VZM',_'VBL')
 <= 25
_C138: x_rice_('BVL',_'VZM') + x_rice_('CHE',_'VZM') + x_rice_('FCIG',_'VZM')
 + x_rice_('FCIR',_'VZM') + x_rice_('FCST',_'VZM') + x_rice_('KNGK',_'VZM')
 + x_rice_('PKO',_'VZM') + x_rice_('VBL',_'VZM') + x_rice_('VZM',_'VZM')
 + x_wheat_('BVL',_'VZM') + x_wheat_('CHE',_'VZM') + x_wheat_('FCIG',_'VZM')
 + x_wheat_('FCIR',_'VZM') + x_wheat_('FCST',_'VZM') + x_wheat_('KNGK',_'VZM')
 + x_wheat_('PKO',_'VZM') + x_wheat_('VBL',_'VZM') + x_wheat_('VZM',_'VZM')
 <= 25
_C139: x_rice_('BVL',_'KNGK') + x_rice_('CHE',_'KNGK')
 + x_rice_('FCIG',_'KNGK') + x_rice_('FCIR',_'KNGK') + x_rice_('FCST',_'KNGK')
 + x_rice_('KNGK',_'KNGK') + x_rice_('PKO',_'KNGK') + x_rice_('VBL',_'KNGK')
 + x_rice_('VZM',_'KNGK') + x_wheat_('BVL',_'KNGK') + x_wheat_('CHE',_'KNGK')
 + x_wheat_('FCIG',_'KNGK') + x_wheat_('FCIR',_'KNGK')
 + x_wheat_('FCST',_'KNGK') + x_wheat_('KNGK',_'KNGK')
 + x_wheat_('PKO',_'KNGK') + x_wheat_('VBL',_'KNGK') + x_wheat_('VZM',_'KNGK')
 <= 25
_C14: x_rice_('KNGK',_'KNGK') = 0
_C140: x_rice_('BVL',_'FCST') + x_rice_('CHE',_'FCST')
 + x_rice_('FCIG',_'FCST') + x_rice_('FCIR',_'FCST') + x_rice_('FCST',_'FCST')
 + x_rice_('KNGK',_'FCST') + x_rice_('PKO',_'FCST') + x_rice_('VBL',_'FCST')
 + x_rice_('VZM',_'FCST') + x_wheat_('BVL',_'FCST') + x_wheat_('CHE',_'FCST')
 + x_wheat_('FCIG',_'FCST') + x_wheat_('FCIR',_'FCST')
 + x_wheat_('FCST',_'FCST') + x_wheat_('KNGK',_'FCST')
 + x_wheat_('PKO',_'FCST') + x_wheat_('VBL',_'FCST') + x_wheat_('VZM',_'FCST')
 <= 25
_C141: x_rice_('BVL',_'BVL') + x_rice_('CHE',_'BVL') + x_rice_('FCIG',_'BVL')
 + x_rice_('FCIR',_'BVL') + x_rice_('FCST',_'BVL') + x_rice_('KNGK',_'BVL')
 + x_rice_('PKO',_'BVL') + x_rice_('VBL',_'BVL') + x_rice_('VZM',_'BVL')
 + x_wheat_('BVL',_'BVL') + x_wheat_('CHE',_'BVL') + x_wheat_('FCIG',_'BVL')
 + x_wheat_('FCIR',_'BVL') + x_wheat_('FCST',_'BVL') + x_wheat_('KNGK',_'BVL')
 + x_wheat_('PKO',_'BVL') + x_wheat_('VBL',_'BVL') + x_wheat_('VZM',_'BVL')
 <= 25
_C142: x_rice_('BVL',_'FCIR') + x_rice_('CHE',_'FCIR')
 + x_rice_('FCIG',_'FCIR') + x_rice_('FCIR',_'FCIR') + x_rice_('FCST',_'FCIR')
 + x_rice_('KNGK',_'FCIR') + x_rice_('PKO',_'FCIR') + x_rice_('VBL',_'FCIR')
 + x_rice_('VZM',_'FCIR') + x_wheat_('BVL',_'FCIR') + x_wheat_('CHE',_'FCIR')
 + x_wheat_('FCIG',_'FCIR') + x_wheat_('FCIR',_'FCIR')
 + x_wheat_('FCST',_'FCIR') + x_wheat_('KNGK',_'FCIR')
 + x_wheat_('PKO',_'FCIR') + x_wheat_('VBL',_'FCIR') + x_wheat_('VZM',_'FCIR')
 <= 25
_C143: x_rice_('BVL',_'PKO') + x_rice_('CHE',_'PKO') + x_rice_('FCIG',_'PKO')
 + x_rice_('FCIR',_'PKO') + x_rice_('FCST',_'PKO') + x_rice_('KNGK',_'PKO')
 + x_rice_('PKO',_'PKO') + x_rice_('VBL',_'PKO') + x_rice_('VZM',_'PKO')
 + x_wheat_('BVL',_'PKO') + x_wheat_('CHE',_'PKO') + x_wheat_('FCIG',_'PKO')
 + x_wheat_('FCIR',_'PKO') + x_wheat_('FCST',_'PKO') + x_wheat_('KNGK',_'PKO')
 + x_wheat_('PKO',_'PKO') + x_wheat_('VBL',_'PKO') + x_wheat_('VZM',_'PKO')
 <= 25
_C15: x_rice_('FCST',_'FCST') = 0
_C16: x_rice_('BVL',_'BVL') = 0
_C17: x_rice_('FCIR',_'FCIR') = 0
_C18: x_rice_('PKO',_'PKO') = 0
_C19: x_wheat_('CHE',_'BVL') + x_wheat_('CHE',_'CHE')
 + x_wheat_('CHE',_'FCIG') + x_wheat_('CHE',_'FCIR') + x_wheat_('CHE',_'FCST')
 + x_wheat_('CHE',_'KNGK') + x_wheat_('CHE',_'PKO') + x_wheat_('CHE',_'VBL')
 + x_wheat_('CHE',_'VZM') <= 0
_C2: x_wheat_('FCIG',_'FCIG') = 0
_C20: x_wheat_('FCIG',_'BVL') + x_wheat_('FCIG',_'CHE')
 + x_wheat_('FCIG',_'FCIG') + x_wheat_('FCIG',_'FCIR')
 + x_wheat_('FCIG',_'FCST') + x_wheat_('FCIG',_'KNGK')
 + x_wheat_('FCIG',_'PKO') + x_wheat_('FCIG',_'VBL') + x_wheat_('FCIG',_'VZM')
 <= 0
_C21: x_wheat_('VBL',_'BVL') + x_wheat_('VBL',_'CHE')
 + x_wheat_('VBL',_'FCIG') + x_wheat_('VBL',_'FCIR') + x_wheat_('VBL',_'FCST')
 + x_wheat_('VBL',_'KNGK') + x_wheat_('VBL',_'PKO') + x_wheat_('VBL',_'VBL')
 + x_wheat_('VBL',_'VZM') <= 0
_C22: x_wheat_('VZM',_'BVL') + x_wheat_('VZM',_'CHE')
 + x_wheat_('VZM',_'FCIG') + x_wheat_('VZM',_'FCIR') + x_wheat_('VZM',_'FCST')
 + x_wheat_('VZM',_'KNGK') + x_wheat_('VZM',_'PKO') + x_wheat_('VZM',_'VBL')
 + x_wheat_('VZM',_'VZM') <= 0
_C23: x_wheat_('KNGK',_'BVL') + x_wheat_('KNGK',_'CHE')
 + x_wheat_('KNGK',_'FCIG') + x_wheat_('KNGK',_'FCIR')
 + x_wheat_('KNGK',_'FCST') + x_wheat_('KNGK',_'KNGK')
 + x_wheat_('KNGK',_'PKO') + x_wheat_('KNGK',_'VBL') + x_wheat_('KNGK',_'VZM')
 <= 0
_C24: x_wheat_('FCST',_'BVL') + x_wheat_('FCST',_'CHE')
 + x_wheat_('FCST',_'FCIG') + x_wheat_('FCST',_'FCIR')
 + x_wheat_('FCST',_'FCST') + x_wheat_('FCST',_'KNGK')
 + x_wheat_('FCST',_'PKO') + x_wheat_('FCST',_'VBL') + x_wheat_('FCST',_'VZM')
 <= 0
_C25: x_wheat_('BVL',_'BVL') + x_wheat_('BVL',_'CHE')
 + x_wheat_('BVL',_'FCIG') + x_wheat_('BVL',_'FCIR') + x_wheat_('BVL',_'FCST')
 + x_wheat_('BVL',_'KNGK') + x_wheat_('BVL',_'PKO') + x_wheat_('BVL',_'VBL')
 + x_wheat_('BVL',_'VZM') <= 0
_C26: x_wheat_('FCIR',_'BVL') + x_wheat_('FCIR',_'CHE')
 + x_wheat_('FCIR',_'FCIG') + x_wheat_('FCIR',_'FCIR')
 + x_wheat_('FCIR',_'FCST') + x_wheat_('FCIR',_'KNGK')
 + x_wheat_('FCIR',_'PKO') + x_wheat_('FCIR',_'VBL') + x_wheat_('FCIR',_'VZM')
 <= 0
_C27: x_wheat_('PKO',_'BVL') + x_wheat_('PKO',_'CHE')
 + x_wheat_('PKO',_'FCIG') + x_wheat_('PKO',_'FCIR') + x_wheat_('PKO',_'FCST')
 + x_wheat_('PKO',_'KNGK') + x_wheat_('PKO',_'PKO') + x_wheat_('PKO',_'VBL')
 + x_wheat_('PKO',_'VZM') <= 0
_C28: x_rice_('CHE',_'BVL') + x_rice_('CHE',_'CHE') + x_rice_('CHE',_'FCIG')
 + x_rice_('CHE',_'FCIR') + x_rice_('CHE',_'FCST') + x_rice_('CHE',_'KNGK')
 + x_rice_('CHE',_'PKO') + x_rice_('CHE',_'VBL') + x_rice_('CHE',_'VZM') <= 0
_C29: x_rice_('FCIG',_'BVL') + x_rice_('FCIG',_'CHE')
 + x_rice_('FCIG',_'FCIG') + x_rice_('FCIG',_'FCIR') + x_rice_('FCIG',_'FCST')
 + x_rice_('FCIG',_'KNGK') + x_rice_('FCIG',_'PKO') + x_rice_('FCIG',_'VBL')
 + x_rice_('FCIG',_'VZM') <= 0
_C3: x_wheat_('VBL',_'VBL') = 0
_C30: x_rice_('VBL',_'BVL') + x_rice_('VBL',_'CHE') + x_rice_('VBL',_'FCIG')
 + x_rice_('VBL',_'FCIR') + x_rice_('VBL',_'FCST') + x_rice_('VBL',_'KNGK')
 + x_rice_('VBL',_'PKO') + x_rice_('VBL',_'VBL') + x_rice_('VBL',_'VZM') <= 0
_C31: x_rice_('VZM',_'BVL') + x_rice_('VZM',_'CHE') + x_rice_('VZM',_'FCIG')
 + x_rice_('VZM',_'FCIR') + x_rice_('VZM',_'FCST') + x_rice_('VZM',_'KNGK')
 + x_rice_('VZM',_'PKO') + x_rice_('VZM',_'VBL') + x_rice_('VZM',_'VZM') <= 0
_C32: x_rice_('KNGK',_'BVL') + x_rice_('KNGK',_'CHE')
 + x_rice_('KNGK',_'FCIG') + x_rice_('KNGK',_'FCIR') + x_rice_('KNGK',_'FCST')
 + x_rice_('KNGK',_'KNGK') + x_rice_('KNGK',_'PKO') + x_rice_('KNGK',_'VBL')
 + x_rice_('KNGK',_'VZM') <= 0
_C33: x_rice_('FCST',_'BVL') + x_rice_('FCST',_'CHE')
 + x_rice_('FCST',_'FCIG') + x_rice_('FCST',_'FCIR') + x_rice_('FCST',_'FCST')
 + x_rice_('FCST',_'KNGK') + x_rice_('FCST',_'PKO') + x_rice_('FCST',_'VBL')
 + x_rice_('FCST',_'VZM') <= 0
_C34: x_rice_('BVL',_'BVL') + x_rice_('BVL',_'CHE') + x_rice_('BVL',_'FCIG')
 + x_rice_('BVL',_'FCIR') + x_rice_('BVL',_'FCST') + x_rice_('BVL',_'KNGK')
 + x_rice_('BVL',_'PKO') + x_rice_('BVL',_'VBL') + x_rice_('BVL',_'VZM') <= 0
_C35: x_rice_('FCIR',_'BVL') + x_rice_('FCIR',_'CHE')
 + x_rice_('FCIR',_'FCIG') + x_rice_('FCIR',_'FCIR') + x_rice_('FCIR',_'FCST')
 + x_rice_('FCIR',_'KNGK') + x_rice_('FCIR',_'PKO') + x_rice_('FCIR',_'VBL')
 + x_rice_('FCIR',_'VZM') <= 0
_C36: x_rice_('PKO',_'BVL') + x_rice_('PKO',_'CHE') + x_rice_('PKO',_'FCIG')
 + x_rice_('PKO',_'FCIR') + x_rice_('PKO',_'FCST') + x_rice_('PKO',_'KNGK')
 + x_rice_('PKO',_'PKO') + x_rice_('PKO',_'VBL') + x_rice_('PKO',_'VZM') <= 0
_C37: x_rice_('CHE',_'BVL') + x_rice_('CHE',_'CHE') + x_rice_('CHE',_'FCIG')
 + x_rice_('CHE',_'FCIR') + x_rice_('CHE',_'FCST') + x_rice_('CHE',_'KNGK')
 + x_rice_('CHE',_'PKO') + x_rice_('CHE',_'VBL') + x_rice_('CHE',_'VZM')
 + x_wheat_('CHE',_'BVL') + x_wheat_('CHE',_'CHE') + x_wheat_('CHE',_'FCIG')
 + x_wheat_('CHE',_'FCIR') + x_wheat_('CHE',_'FCST') + x_wheat_('CHE',_'KNGK')
 + x_wheat_('CHE',_'PKO') + x_wheat_('CHE',_'VBL') + x_wheat_('CHE',_'VZM')
 <= 25
_C38: x_rice_('FCIG',_'BVL') + x_rice_('FCIG',_'CHE')
 + x_rice_('FCIG',_'FCIG') + x_rice_('FCIG',_'FCIR') + x_rice_('FCIG',_'FCST')
 + x_rice_('FCIG',_'KNGK') + x_rice_('FCIG',_'PKO') + x_rice_('FCIG',_'VBL')
 + x_rice_('FCIG',_'VZM') + x_wheat_('FCIG',_'BVL') + x_wheat_('FCIG',_'CHE')
 + x_wheat_('FCIG',_'FCIG') + x_wheat_('FCIG',_'FCIR')
 + x_wheat_('FCIG',_'FCST') + x_wheat_('FCIG',_'KNGK')
 + x_wheat_('FCIG',_'PKO') + x_wheat_('FCIG',_'VBL') + x_wheat_('FCIG',_'VZM')
 <= 25
_C39: x_rice_('VBL',_'BVL') + x_rice_('VBL',_'CHE') + x_rice_('VBL',_'FCIG')
 + x_rice_('VBL',_'FCIR') + x_rice_('VBL',_'FCST') + x_rice_('VBL',_'KNGK')
 + x_rice_('VBL',_'PKO') + x_rice_('VBL',_'VBL') + x_rice_('VBL',_'VZM')
 + x_wheat_('VBL',_'BVL') + x_wheat_('VBL',_'CHE') + x_wheat_('VBL',_'FCIG')
 + x_wheat_('VBL',_'FCIR') + x_wheat_('VBL',_'FCST') + x_wheat_('VBL',_'KNGK')
 + x_wheat_('VBL',_'PKO') + x_wheat_('VBL',_'VBL') + x_wheat_('VBL',_'VZM')
 <= 25
_C4: x_wheat_('VZM',_'VZM') = 0
_C40: x_rice_('VZM',_'BVL') + x_rice_('VZM',_'CHE') + x_rice_('VZM',_'FCIG')
 + x_rice_('VZM',_'FCIR') + x_rice_('VZM',_'FCST') + x_rice_('VZM',_'KNGK')
 + x_rice_('VZM',_'PKO') + x_rice_('VZM',_'VBL') + x_rice_('VZM',_'VZM')
 + x_wheat_('VZM',_'BVL') + x_wheat_('VZM',_'CHE') + x_wheat_('VZM',_'FCIG')
 + x_wheat_('VZM',_'FCIR') + x_wheat_('VZM',_'FCST') + x_wheat_('VZM',_'KNGK')
 + x_wheat_('VZM',_'PKO') + x_wheat_('VZM',_'VBL') + x_wheat_('VZM',_'VZM')
 <= 25
_C41: x_rice_('KNGK',_'BVL') + x_rice_('KNGK',_'CHE')
 + x_rice_('KNGK',_'FCIG') + x_rice_('KNGK',_'FCIR') + x_rice_('KNGK',_'FCST')
 + x_rice_('KNGK',_'KNGK') + x_rice_('KNGK',_'PKO') + x_rice_('KNGK',_'VBL')
 + x_rice_('KNGK',_'VZM') + x_wheat_('KNGK',_'BVL') + x_wheat_('KNGK',_'CHE')
 + x_wheat_('KNGK',_'FCIG') + x_wheat_('KNGK',_'FCIR')
 + x_wheat_('KNGK',_'FCST') + x_wheat_('KNGK',_'KNGK')
 + x_wheat_('KNGK',_'PKO') + x_wheat_('KNGK',_'VBL') + x_wheat_('KNGK',_'VZM')
 <= 25
_C42: x_rice_('FCST',_'BVL') + x_rice_('FCST',_'CHE')
 + x_rice_('FCST',_'FCIG') + x_rice_('FCST',_'FCIR') + x_rice_('FCST',_'FCST')
 + x_rice_('FCST',_'KNGK') + x_rice_('FCST',_'PKO') + x_rice_('FCST',_'VBL')
 + x_rice_('FCST',_'VZM') + x_wheat_('FCST',_'BVL') + x_wheat_('FCST',_'CHE')
 + x_wheat_('FCST',_'FCIG') + x_wheat_('FCST',_'FCIR')
 + x_wheat_('FCST',_'FCST') + x_wheat_('FCST',_'KNGK')
 + x_wheat_('FCST',_'PKO') + x_wheat_('FCST',_'VBL') + x_wheat_('FCST',_'VZM')
 <= 25
_C43: x_rice_('BVL',_'BVL') + x_rice_('BVL',_'CHE') + x_rice_('BVL',_'FCIG')
 + x_rice_('BVL',_'FCIR') + x_rice_('BVL',_'FCST') + x_rice_('BVL',_'KNGK')
 + x_rice_('BVL',_'PKO') + x_rice_('BVL',_'VBL') + x_rice_('BVL',_'VZM')
 + x_wheat_('BVL',_'BVL') + x_wheat_('BVL',_'CHE') + x_wheat_('BVL',_'FCIG')
 + x_wheat_('BVL',_'FCIR') + x_wheat_('BVL',_'FCST') + x_wheat_('BVL',_'KNGK')
 + x_wheat_('BVL',_'PKO') + x_wheat_('BVL',_'VBL') + x_wheat_('BVL',_'VZM')
 <= 25
_C44: x_rice_('FCIR',_'BVL') + x_rice_('FCIR',_'CHE')
 + x_rice_('FCIR',_'FCIG') + x_rice_('FCIR',_'FCIR') + x_rice_('FCIR',_'FCST')
 + x_rice_('FCIR',_'KNGK') + x_rice_('FCIR',_'PKO') + x_rice_('FCIR',_'VBL')
 + x_rice_('FCIR',_'VZM') + x_wheat_('FCIR',_'BVL') + x_wheat_('FCIR',_'CHE')
 + x_wheat_('FCIR',_'FCIG') + x_wheat_('FCIR',_'FCIR')
 + x_wheat_('FCIR',_'FCST') + x_wheat_('FCIR',_'KNGK')
 + x_wheat_('FCIR',_'PKO') + x_wheat_('FCIR',_'VBL') + x_wheat_('FCIR',_'VZM')
 <= 25
_C45: x_rice_('PKO',_'BVL') + x_rice_('PKO',_'CHE') + x_rice_('PKO',_'FCIG')
 + x_rice_('PKO',_'FCIR') + x_rice_('PKO',_'FCST') + x_rice_('PKO',_'KNGK')
 + x_rice_('PKO',_'PKO') + x_rice_('PKO',_'VBL') + x_rice_('PKO',_'VZM')
 + x_wheat_('PKO',_'BVL') + x_wheat_('PKO',_'CHE') + x_wheat_('PKO',_'FCIG')
 + x_wheat_('PKO',_'FCIR') + x_wheat_('PKO',_'FCST') + x_wheat_('PKO',_'KNGK')
 + x_wheat_('PKO',_'PKO') + x_wheat_('PKO',_'VBL') + x_wheat_('PKO',_'VZM')
 <= 25
_C46: x_wheat_('BVL',_'BVL') + x_wheat_('BVL',_'CHE')
 + x_wheat_('BVL',_'FCIG') + x_wheat_('BVL',_'FCIR') + x_wheat_('BVL',_'FCST')
 + x_wheat_('BVL',_'KNGK') + x_wheat_('BVL',_'PKO') + x_wheat_('BVL',_'VBL')
 + x_wheat_('BVL',_'VZM') + x_wheat_('CHE',_'BVL') + x_wheat_('CHE',_'CHE')
 + x_wheat_('CHE',_'FCIG') + x_wheat_('CHE',_'FCIR') + x_wheat_('CHE',_'FCST')
 + x_wheat_('CHE',_'KNGK') + x_wheat_('CHE',_'PKO') + x_wheat_('CHE',_'VBL')
 + x_wheat_('CHE',_'VZM') + x_wheat_('FCIG',_'BVL') + x_wheat_('FCIG',_'CHE')
 + x_wheat_('FCIG',_'FCIG') + x_wheat_('FCIG',_'FCIR')
 + x_wheat_('FCIG',_'FCST') + x_wheat_('FCIG',_'KNGK')
 + x_wheat_('FCIG',_'PKO') + x_wheat_('FCIG',_'VBL') + x_wheat_('FCIG',_'VZM')
 + x_wheat_('FCIR',_'BVL') + x_wheat_('FCIR',_'CHE')
 + x_wheat_('FCIR',_'FCIG') + x_wheat_('FCIR',_'FCIR')
 + x_wheat_('FCIR',_'FCST') + x_wheat_('FCIR',_'KNGK')
 + x_wheat_('FCIR',_'PKO') + x_wheat_('FCIR',_'VBL') + x_wheat_('FCIR',_'VZM')
 + x_wheat_('FCST',_'BVL') + x_wheat_('FCST',_'CHE')
 + x_wheat_('FCST',_'FCIG') + x_wheat_('FCST',_'FCIR')
 + x_wheat_('FCST',_'FCST') + x_wheat_('FCST',_'KNGK')
 + x_wheat_('FCST',_'PKO') + x_wheat_('FCST',_'VBL') + x_wheat_('FCST',_'VZM')
 + x_wheat_('KNGK',_'BVL') + x_wheat_('KNGK',_'CHE')
 + x_wheat_('KNGK',_'FCIG') + x_wheat_('KNGK',_'FCIR')
 + x_wheat_('KNGK',_'FCST') + x_wheat_('KNGK',_'KNGK')
 + x_wheat_('KNGK',_'PKO') + x_wheat_('KNGK',_'VBL') + x_wheat_('KNGK',_'VZM')
 + x_wheat_('PKO',_'BVL') + x_wheat_('PKO',_'CHE') + x_wheat_('PKO',_'FCIG')
 + x_wheat_('PKO',_'FCIR') + x_wheat_('PKO',_'FCST') + x_wheat_('PKO',_'KNGK')
 + x_wheat_('PKO',_'PKO') + x_wheat_('PKO',_'VBL') + x_wheat_('PKO',_'VZM')
 + x_wheat_('VBL',_'BVL') + x_wheat_('VBL',_'CHE') + x_wheat_('VBL',_'FCIG')
 + x_wheat_('VBL',_'FCIR') + x_wheat_('VBL',_'FCST') + x_wheat_('VBL',_'KNGK')
 + x_wheat_('VBL',_'PKO') + x_wheat_('VBL',_'VBL') + x_wheat_('VBL',_'VZM')
 + x_wheat_('VZM',_'BVL') + x_wheat_('VZM',_'CHE') + x_wheat_('VZM',_'FCIG')
 + x_wheat_('VZM',_'FCIR') + x_wheat_('VZM',_'FCST') + x_wheat_('VZM',_'KNGK')
 + x_wheat_('VZM',_'PKO') + x_wheat_('VZM',_'VBL') + x_wheat_('VZM',_'VZM')
 >= 0
_C47: x_wheat_('BVL',_'BVL') + x_wheat_('BVL',_'CHE')
 + x_wheat_('BVL',_'FCIG') + x_wheat_('BVL',_'FCIR') + x_wheat_('BVL',_'FCST')
 + x_wheat_('BVL',_'KNGK') + x_wheat_('BVL',_'PKO') + x_wheat_('BVL',_'VBL')
 + x_wheat_('BVL',_'VZM') + x_wheat_('CHE',_'BVL') + x_wheat_('CHE',_'CHE')
 + x_wheat_('CHE',_'FCIG') + x_wheat_('CHE',_'FCIR') + x_wheat_('CHE',_'FCST')
 + x_wheat_('CHE',_'KNGK') + x_wheat_('CHE',_'PKO') + x_wheat_('CHE',_'VBL')
 + x_wheat_('CHE',_'VZM') + x_wheat_('FCIG',_'BVL') + x_wheat_('FCIG',_'CHE')
 + x_wheat_('FCIG',_'FCIG') + x_wheat_('FCIG',_'FCIR')
 + x_wheat_('FCIG',_'FCST') + x_wheat_('FCIG',_'KNGK')
 + x_wheat_('FCIG',_'PKO') + x_wheat_('FCIG',_'VBL') + x_wheat_('FCIG',_'VZM')
 + x_wheat_('FCIR',_'BVL') + x_wheat_('FCIR',_'CHE')
 + x_wheat_('FCIR',_'FCIG') + x_wheat_('FCIR',_'FCIR')
 + x_wheat_('FCIR',_'FCST') + x_wheat_('FCIR',_'KNGK')
 + x_wheat_('FCIR',_'PKO') + x_wheat_('FCIR',_'VBL') + x_wheat_('FCIR',_'VZM')
 + x_wheat_('FCST',_'BVL') + x_wheat_('FCST',_'CHE')
 + x_wheat_('FCST',_'FCIG') + x_wheat_('FCST',_'FCIR')
 + x_wheat_('FCST',_'FCST') + x_wheat_('FCST',_'KNGK')
 + x_wheat_('FCST',_'PKO') + x_wheat_('FCST',_'VBL') + x_wheat_('FCST',_'VZM')
 + x_wheat_('KNGK',_'BVL') + x_wheat_('KNGK',_'CHE')
 + x_wheat_('KNGK',_'FCIG') + x_wheat_('KNGK',_'FCIR')
 + x_wheat_('KNGK',_'FCST') + x_wheat_('KNGK',_'KNGK')
 + x_wheat_('KNGK',_'PKO') + x_wheat_('KNGK',_'VBL') + x_wheat_('KNGK',_'VZM')
 + x_wheat_('PKO',_'BVL') + x_wheat_('PKO',_'CHE') + x_wheat_('PKO',_'FCIG')
 + x_wheat_('PKO',_'FCIR') + x_wheat_('PKO',_'FCST') + x_wheat_('PKO',_'KNGK')
 + x_wheat_('PKO',_'PKO') + x_wheat_('PKO',_'VBL') + x_wheat_('PKO',_'VZM')
 + x_wheat_('VBL',_'BVL') + x_wheat_('VBL',_'CHE') + x_wheat_('VBL',_'FCIG')
 + x_wheat_('VBL',_'FCIR') + x_wheat_('VBL',_'FCST') + x_wheat_('VBL',_'KNGK')
 + x_wheat_('VBL',_'PKO') + x_wheat_('VBL',_'VBL') + x_wheat_('VBL',_'VZM')
 + x_wheat_('VZM',_'BVL') + x_wheat_('VZM',_'CHE') + x_wheat_('VZM',_'FCIG')
 + x_wheat_('VZM',_'FCIR') + x_wheat_('VZM',_'FCST') + x_wheat_('VZM',_'KNGK')
 + x_wheat_('VZM',_'PKO') + x_wheat_('VZM',_'VBL') + x_wheat_('VZM',_'VZM')
 <= 0
_C48: __dummy >= 0
_C49: __dummy <= 0
_C5: x_wheat_('KNGK',_'KNGK') = 0
_C50: __dummy >= 0
_C51: __dummy <= 0
_C52: __dummy >= 0
_C53: __dummy <= 0
_C54: __dummy >= 0
_C55: __dummy <= 0
_C56: __dummy >= 0
_C57: __dummy <= 0
_C58: __dummy >= 0
_C59: __dummy <= 0
_C6: x_wheat_('FCST',_'FCST') = 0
_C60: __dummy >= 0
_C61: __dummy <= 0
_C62: __dummy >= 0
_C63: __dummy <= 0
_C64: __dummy >= 0
_C65: __dummy <= 0
_C66: __dummy >= 0
_C67: __dummy <= 0
_C68: __dummy >= 0
_C69: __dummy <= 0
_C7: x_wheat_('BVL',_'BVL') = 0
_C70: __dummy >= 0
_C71: __dummy <= 0
_C72: __dummy >= 0
_C73: __dummy <= 0
_C74: __dummy >= 0
_C75: __dummy <= 0
_C76: __dummy >= 0
_C77: __dummy <= 0
_C78: __dummy >= 0
_C79: __dummy <= 0
_C8: x_wheat_('FCIR',_'FCIR') = 0
_C80: __dummy >= 0
_C81: __dummy <= 0
_C82: __dummy >= 0
_C83: __dummy <= 0
_C84: __dummy >= 0
_C85: __dummy <= 0
_C86: x_rice_('BVL',_'BVL') + x_rice_('BVL',_'CHE') + x_rice_('BVL',_'FCIG')
 + x_rice_('BVL',_'FCIR') + x_rice_('BVL',_'FCST') + x_rice_('BVL',_'KNGK')
 + x_rice_('BVL',_'PKO') + x_rice_('BVL',_'VBL') + x_rice_('BVL',_'VZM')
 + x_rice_('CHE',_'BVL') + x_rice_('CHE',_'CHE') + x_rice_('CHE',_'FCIG')
 + x_rice_('CHE',_'FCIR') + x_rice_('CHE',_'FCST') + x_rice_('CHE',_'KNGK')
 + x_rice_('CHE',_'PKO') + x_rice_('CHE',_'VBL') + x_rice_('CHE',_'VZM')
 + x_rice_('FCIG',_'BVL') + x_rice_('FCIG',_'CHE') + x_rice_('FCIG',_'FCIG')
 + x_rice_('FCIG',_'FCIR') + x_rice_('FCIG',_'FCST') + x_rice_('FCIG',_'KNGK')
 + x_rice_('FCIG',_'PKO') + x_rice_('FCIG',_'VBL') + x_rice_('FCIG',_'VZM')
 + x_rice_('FCIR',_'BVL') + x_rice_('FCIR',_'CHE') + x_rice_('FCIR',_'FCIG')
 + x_rice_('FCIR',_'FCIR') + x_rice_('FCIR',_'FCST') + x_rice_('FCIR',_'KNGK')
 + x_rice_('FCIR',_'PKO') + x_rice_('FCIR',_'VBL') + x_rice_('FCIR',_'VZM')
 + x_rice_('FCST',_'BVL') + x_rice_('FCST',_'CHE') + x_rice_('FCST',_'FCIG')
 + x_rice_('FCST',_'FCIR') + x_rice_('FCST',_'FCST') + x_rice_('FCST',_'KNGK')
 + x_rice_('FCST',_'PKO') + x_rice_('FCST',_'VBL') + x_rice_('FCST',_'VZM')
 + x_rice_('KNGK',_'BVL') + x_rice_('KNGK',_'CHE') + x_rice_('KNGK',_'FCIG')
 + x_rice_('KNGK',_'FCIR') + x_rice_('KNGK',_'FCST') + x_rice_('KNGK',_'KNGK')
 + x_rice_('KNGK',_'PKO') + x_rice_('KNGK',_'VBL') + x_rice_('KNGK',_'VZM')
 + x_rice_('PKO',_'BVL') + x_rice_('PKO',_'CHE') + x_rice_('PKO',_'FCIG')
 + x_rice_('PKO',_'FCIR') + x_rice_('PKO',_'FCST') + x_rice_('PKO',_'KNGK')
 + x_rice_('PKO',_'PKO') + x_rice_('PKO',_'VBL') + x_rice_('PKO',_'VZM')
 + x_rice_('VBL',_'BVL') + x_rice_('VBL',_'CHE') + x_rice_('VBL',_'FCIG')
 + x_rice_('VBL',_'FCIR') + x_rice_('VBL',_'FCST') + x_rice_('VBL',_'KNGK')
 + x_rice_('VBL',_'PKO') + x_rice_('VBL',_'VBL') + x_rice_('VBL',_'VZM')
 + x_rice_('VZM',_'BVL') + x_rice_('VZM',_'CHE') + x_rice_('VZM',_'FCIG')
 + x_rice_('VZM',_'FCIR') + x_rice_('VZM',_'FCST') + x_rice_('VZM',_'KNGK')
 + x_rice_('VZM',_'PKO') + x_rice_('VZM',_'VBL') + x_rice_('VZM',_'VZM') >= 0
_C87: x_rice_('BVL',_'BVL') + x_rice_('BVL',_'CHE') + x_rice_('BVL',_'FCIG')
 + x_rice_('BVL',_'FCIR') + x_rice_('BVL',_'FCST') + x_rice_('BVL',_'KNGK')
 + x_rice_('BVL',_'PKO') + x_rice_('BVL',_'VBL') + x_rice_('BVL',_'VZM')
 + x_rice_('CHE',_'BVL') + x_rice_('CHE',_'CHE') + x_rice_('CHE',_'FCIG')
 + x_rice_('CHE',_'FCIR') + x_rice_('CHE',_'FCST') + x_rice_('CHE',_'KNGK')
 + x_rice_('CHE',_'PKO') + x_rice_('CHE',_'VBL') + x_rice_('CHE',_'VZM')
 + x_rice_('FCIG',_'BVL') + x_rice_('FCIG',_'CHE') + x_rice_('FCIG',_'FCIG')
 + x_rice_('FCIG',_'FCIR') + x_rice_('FCIG',_'FCST') + x_rice_('FCIG',_'KNGK')
 + x_rice_('FCIG',_'PKO') + x_rice_('FCIG',_'VBL') + x_rice_('FCIG',_'VZM')
 + x_rice_('FCIR',_'BVL') + x_rice_('FCIR',_'CHE') + x_rice_('FCIR',_'FCIG')
 + x_rice_('FCIR',_'FCIR') + x_rice_('FCIR',_'FCST') + x_rice_('FCIR',_'KNGK')
 + x_rice_('FCIR',_'PKO') + x_rice_('FCIR',_'VBL') + x_rice_('FCIR',_'VZM')
 + x_rice_('FCST',_'BVL') + x_rice_('FCST',_'CHE') + x_rice_('FCST',_'FCIG')
 + x_rice_('FCST',_'FCIR') + x_rice_('FCST',_'FCST') + x_rice_('FCST',_'KNGK')
 + x_rice_('FCST',_'PKO') + x_rice_('FCST',_'VBL') + x_rice_('FCST',_'VZM')
 + x_rice_('KNGK',_'BVL') + x_rice_('KNGK',_'CHE') + x_rice_('KNGK',_'FCIG')
 + x_rice_('KNGK',_'FCIR') + x_rice_('KNGK',_'FCST') + x_rice_('KNGK',_'KNGK')
 + x_rice_('KNGK',_'PKO') + x_rice_('KNGK',_'VBL') + x_rice_('KNGK',_'VZM')
 + x_rice_('PKO',_'BVL') + x_rice_('PKO',_'CHE') + x_rice_('PKO',_'FCIG')
 + x_rice_('PKO',_'FCIR') + x_rice_('PKO',_'FCST') + x_rice_('PKO',_'KNGK')
 + x_rice_('PKO',_'PKO') + x_rice_('PKO',_'VBL') + x_rice_('PKO',_'VZM')
 + x_rice_('VBL',_'BVL') + x_rice_('VBL',_'CHE') + x_rice_('VBL',_'FCIG')
 + x_rice_('VBL',_'FCIR') + x_rice_('VBL',_'FCST') + x_rice_('VBL',_'KNGK')
 + x_rice_('VBL',_'PKO') + x_rice_('VBL',_'VBL') + x_rice_('VBL',_'VZM')
 + x_rice_('VZM',_'BVL') + x_rice_('VZM',_'CHE') + x_rice_('VZM',_'FCIG')
 + x_rice_('VZM',_'FCIR') + x_rice_('VZM',_'FCST') + x_rice_('VZM',_'KNGK')
 + x_rice_('VZM',_'PKO') + x_rice_('VZM',_'VBL') + x_rice_('VZM',_'VZM') <= 0
_C88: __dummy >= 0
_C89: __dummy <= 0
_C9: x_wheat_('PKO',_'PKO') = 0
_C90: __dummy >= 0
_C91: __dummy <= 0
_C92: __dummy >= 0
_C93: __dummy <= 0
_C94: __dummy >= 0
_C95: __dummy <= 0
_C96: __dummy >= 0
_C97: __dummy <= 0
_C98: __dummy >= 0
_C99: __dummy <= 0
Bounds
 __dummy = 0
End
